clingo version 5.7.1
Reading from stdin
Solving...
SATISFIABLE

Models       : 26422
Calls        : 1
Time         : 363.992s (Solving: 250.74s 1st Model: 12.21s Unsat: 7.66s)
CPU Time     : 362.330s
